p edge 75 1110
e 1 2
e 1 3
e 1 5
e 1 8
e 1 9
e 1 15
e 1 17
e 1 22
e 1 25
e 1 27
e 1 28
e 1 30
e 1 35
e 1 36
e 1 38
e 1 40
e 1 41
e 1 46
e 1 49
e 1 55
e 1 56
e 1 57
e 1 58
e 1 61
e 1 65
e 1 66
e 1 67
e 1 68
e 1 69
e 1 70
e 1 73
e 1 75
e 2 3
e 2 4
e 2 6
e 2 7
e 2 8
e 2 10
e 2 15
e 2 18
e 2 19
e 2 20
e 2 22
e 2 23
e 2 24
e 2 26
e 2 31
e 2 33
e 2 34
e 2 35
e 2 36
e 2 37
e 2 38
e 2 40
e 2 46
e 2 48
e 2 51
e 2 56
e 2 57
e 2 58
e 2 60
e 2 62
e 2 67
e 2 69
e 2 72
e 2 75
e 3 4
e 3 8
e 3 11
e 3 15
e 3 17
e 3 18
e 3 20
e 3 21
e 3 22
e 3 25
e 3 27
e 3 28
e 3 29
e 3 30
e 3 32
e 3 34
e 3 35
e 3 41
e 3 43
e 3 49
e 3 50
e 3 52
e 3 56
e 3 65
e 3 66
e 3 69
e 3 74
e 3 75
e 4 6
e 4 10
e 4 12
e 4 13
e 4 14
e 4 20
e 4 25
e 4 27
e 4 28
e 4 33
e 4 34
e 4 36
e 4 39
e 4 42
e 4 43
e 4 44
e 4 47
e 4 49
e 4 50
e 4 53
e 4 55
e 4 58
e 4 60
e 4 61
e 4 62
e 4 71
e 4 73
e 4 74
e 5 6
e 5 7
e 5 12
e 5 17
e 5 20
e 5 21
e 5 22
e 5 23
e 5 24
e 5 31
e 5 33
e 5 34
e 5 35
e 5 39
e 5 42
e 5 45
e 5 48
e 5 56
e 5 59
e 5 61
e 5 62
e 5 65
e 5 70
e 5 71
e 5 72
e 5 73
e 6 9
e 6 11
e 6 12
e 6 14
e 6 15
e 6 16
e 6 18
e 6 19
e 6 23
e 6 25
e 6 28
e 6 30
e 6 31
e 6 37
e 6 38
e 6 39
e 6 40
e 6 41
e 6 45
e 6 46
e 6 48
e 6 54
e 6 57
e 6 59
e 6 60
e 6 63
e 6 66
e 6 69
e 6 70
e 6 71
e 6 73
e 7 9
e 7 10
e 7 11
e 7 15
e 7 17
e 7 19
e 7 22
e 7 24
e 7 29
e 7 34
e 7 36
e 7 37
e 7 39
e 7 40
e 7 41
e 7 42
e 7 43
e 7 44
e 7 47
e 7 51
e 7 52
e 7 53
e 7 55
e 7 57
e 7 61
e 7 63
e 7 66
e 7 70
e 7 71
e 7 74
e 8 9
e 8 14
e 8 18
e 8 21
e 8 25
e 8 26
e 8 27
e 8 28
e 8 29
e 8 30
e 8 32
e 8 33
e 8 35
e 8 36
e 8 38
e 8 39
e 8 40
e 8 41
e 8 42
e 8 44
e 8 46
e 8 51
e 8 52
e 8 53
e 8 60
e 8 61
e 8 63
e 8 64
e 8 65
e 8 66
e 8 67
e 8 70
e 8 71
e 8 72
e 8 75
e 9 12
e 9 13
e 9 14
e 9 17
e 9 18
e 9 19
e 9 22
e 9 26
e 9 27
e 9 29
e 9 31
e 9 33
e 9 41
e 9 43
e 9 45
e 9 46
e 9 49
e 9 56
e 9 57
e 9 66
e 9 69
e 9 70
e 9 73
e 10 14
e 10 15
e 10 16
e 10 17
e 10 18
e 10 19
e 10 22
e 10 28
e 10 31
e 10 33
e 10 35
e 10 39
e 10 40
e 10 43
e 10 45
e 10 53
e 10 55
e 10 58
e 10 59
e 10 62
e 10 65
e 10 67
e 10 68
e 10 69
e 10 74
e 11 12
e 11 14
e 11 17
e 11 18
e 11 19
e 11 20
e 11 21
e 11 24
e 11 25
e 11 26
e 11 30
e 11 32
e 11 35
e 11 36
e 11 40
e 11 42
e 11 43
e 11 44
e 11 45
e 11 59
e 11 60
e 11 61
e 11 62
e 11 68
e 11 70
e 11 72
e 11 73
e 11 74
e 11 75
e 12 16
e 12 20
e 12 23
e 12 30
e 12 32
e 12 33
e 12 40
e 12 41
e 12 43
e 12 50
e 12 51
e 12 59
e 12 61
e 12 65
e 12 70
e 12 71
e 12 75
e 13 15
e 13 16
e 13 18
e 13 20
e 13 21
e 13 25
e 13 27
e 13 29
e 13 30
e 13 31
e 13 32
e 13 35
e 13 40
e 13 41
e 13 43
e 13 48
e 13 49
e 13 54
e 13 61
e 13 62
e 13 64
e 13 69
e 13 73
e 14 16
e 14 21
e 14 23
e 14 26
e 14 29
e 14 30
e 14 31
e 14 33
e 14 37
e 14 39
e 14 41
e 14 44
e 14 48
e 14 51
e 14 52
e 14 54
e 14 56
e 14 59
e 14 68
e 14 70
e 14 71
e 14 72
e 15 16
e 15 23
e 15 24
e 15 25
e 15 26
e 15 27
e 15 28
e 15 31
e 15 32
e 15 33
e 15 35
e 15 36
e 15 37
e 15 38
e 15 40
e 15 41
e 15 45
e 15 47
e 15 48
e 15 49
e 15 50
e 15 53
e 15 54
e 15 56
e 15 59
e 15 62
e 15 64
e 15 67
e 15 68
e 15 70
e 15 71
e 15 72
e 15 73
e 15 74
e 16 18
e 16 19
e 16 20
e 16 22
e 16 23
e 16 31
e 16 32
e 16 34
e 16 37
e 16 38
e 16 40
e 16 42
e 16 44
e 16 46
e 16 49
e 16 50
e 16 63
e 16 66
e 16 69
e 16 72
e 17 21
e 17 23
e 17 26
e 17 28
e 17 30
e 17 31
e 17 38
e 17 39
e 17 41
e 17 42
e 17 52
e 17 53
e 17 54
e 17 56
e 17 57
e 17 61
e 17 65
e 17 66
e 17 70
e 17 71
e 17 73
e 17 75
e 18 20
e 18 22
e 18 23
e 18 30
e 18 36
e 18 37
e 18 39
e 18 40
e 18 43
e 18 46
e 18 47
e 18 56
e 18 60
e 18 63
e 18 66
e 18 70
e 18 71
e 19 20
e 19 21
e 19 23
e 19 24
e 19 26
e 19 28
e 19 31
e 19 32
e 19 33
e 19 37
e 19 39
e 19 41
e 19 42
e 19 43
e 19 49
e 19 53
e 19 54
e 19 56
e 19 65
e 19 69
e 19 70
e 19 72
e 19 74
e 19 75
e 20 21
e 20 22
e 20 23
e 20 25
e 20 27
e 20 29
e 20 30
e 20 38
e 20 40
e 20 49
e 20 50
e 20 52
e 20 58
e 20 59
e 20 63
e 20 66
e 20 73
e 21 22
e 21 25
e 21 26
e 21 27
e 21 29
e 21 30
e 21 31
e 21 32
e 21 33
e 21 34
e 21 36
e 21 37
e 21 39
e 21 40
e 21 43
e 21 45
e 21 46
e 21 55
e 21 56
e 21 59
e 21 60
e 21 66
e 21 70
e 21 71
e 21 74
e 22 23
e 22 25
e 22 26
e 22 28
e 22 30
e 22 31
e 22 32
e 22 36
e 22 38
e 22 40
e 22 43
e 22 46
e 22 49
e 22 52
e 22 54
e 22 56
e 22 57
e 22 58
e 22 63
e 22 66
e 22 68
e 22 71
e 22 74
e 22 75
e 23 24
e 23 28
e 23 29
e 23 31
e 23 33
e 23 37
e 23 41
e 23 58
e 23 59
e 23 65
e 23 66
e 23 68
e 23 71
e 23 72
e 23 73
e 24 26
e 24 27
e 24 31
e 24 34
e 24 39
e 24 40
e 24 41
e 24 43
e 24 54
e 24 62
e 24 63
e 24 64
e 24 67
e 24 68
e 24 69
e 24 72
e 24 73
e 24 74
e 24 75
e 25 27
e 25 29
e 25 32
e 25 33
e 25 45
e 25 54
e 25 61
e 25 62
e 25 64
e 25 69
e 26 27
e 26 36
e 26 38
e 26 41
e 26 45
e 26 47
e 26 52
e 26 53
e 26 57
e 26 60
e 26 62
e 26 64
e 26 66
e 26 67
e 26 69
e 26 70
e 26 72
e 26 74
e 27 37
e 27 38
e 27 41
e 27 42
e 27 45
e 27 46
e 27 49
e 27 50
e 27 51
e 27 52
e 27 53
e 27 56
e 27 60
e 27 64
e 27 70
e 27 71
e 27 73
e 28 29
e 28 32
e 28 33
e 28 34
e 28 39
e 28 40
e 28 42
e 28 43
e 28 44
e 28 48
e 28 49
e 28 53
e 28 55
e 28 56
e 28 58
e 28 61
e 28 62
e 28 63
e 28 64
e 28 68
e 28 74
e 29 30
e 29 31
e 29 34
e 29 35
e 29 38
e 29 39
e 29 40
e 29 41
e 29 45
e 29 48
e 29 52
e 29 53
e 29 57
e 29 59
e 29 63
e 29 67
e 29 70
e 29 73
e 29 74
e 30 33
e 30 34
e 30 35
e 30 36
e 30 37
e 30 38
e 30 39
e 30 45
e 30 48
e 30 50
e 30 51
e 30 52
e 30 53
e 30 54
e 30 55
e 30 57
e 30 59
e 30 62
e 30 63
e 30 66
e 30 67
e 30 68
e 30 69
e 30 71
e 30 74
e 31 32
e 31 34
e 31 35
e 31 37
e 31 38
e 31 39
e 31 48
e 31 51
e 31 54
e 31 55
e 31 56
e 31 59
e 31 61
e 31 63
e 31 65
e 31 69
e 31 70
e 31 73
e 32 36
e 32 37
e 32 38
e 32 49
e 32 52
e 32 54
e 32 55
e 32 57
e 32 58
e 32 59
e 32 61
e 32 63
e 32 68
e 32 69
e 32 71
e 32 72
e 32 75
e 33 34
e 33 35
e 33 38
e 33 39
e 33 40
e 33 47
e 33 49
e 33 50
e 33 56
e 33 57
e 33 58
e 33 59
e 33 60
e 33 62
e 33 63
e 33 64
e 33 65
e 33 67
e 33 70
e 33 71
e 33 75
e 34 35
e 34 40
e 34 44
e 34 49
e 34 51
e 34 55
e 34 57
e 34 60
e 34 62
e 34 63
e 34 64
e 34 66
e 34 72
e 34 74
e 35 38
e 35 40
e 35 41
e 35 42
e 35 44
e 35 45
e 35 46
e 35 48
e 35 49
e 35 50
e 35 53
e 35 54
e 35 56
e 35 60
e 35 61
e 35 67
e 35 68
e 35 69
e 35 73
e 36 37
e 36 39
e 36 42
e 36 46
e 36 47
e 36 50
e 36 53
e 36 56
e 36 59
e 36 61
e 36 64
e 37 39
e 37 46
e 37 51
e 37 54
e 37 55
e 37 56
e 37 57
e 37 58
e 37 60
e 37 62
e 37 64
e 37 65
e 37 67
e 37 68
e 37 69
e 37 70
e 37 72
e 37 73
e 37 74
e 37 75
e 38 42
e 38 47
e 38 51
e 38 55
e 38 57
e 38 58
e 38 75
e 39 40
e 39 43
e 39 44
e 39 45
e 39 46
e 39 52
e 39 55
e 39 56
e 39 57
e 39 59
e 39 68
e 39 69
e 39 74
e 40 44
e 40 45
e 40 46
e 40 48
e 40 51
e 40 53
e 40 55
e 40 59
e 40 63
e 40 66
e 40 67
e 40 68
e 40 69
e 40 72
e 40 73
e 40 75
e 41 47
e 41 49
e 41 50
e 41 52
e 41 53
e 41 55
e 41 56
e 41 58
e 41 63
e 41 64
e 41 65
e 41 69
e 41 70
e 41 71
e 42 43
e 42 45
e 42 52
e 42 53
e 42 59
e 42 60
e 42 64
e 42 66
e 42 67
e 42 69
e 42 70
e 42 71
e 43 45
e 43 47
e 43 52
e 43 55
e 43 58
e 43 60
e 43 62
e 43 67
e 43 68
e 43 69
e 43 71
e 43 73
e 44 46
e 44 47
e 44 48
e 44 51
e 44 52
e 44 53
e 44 54
e 44 58
e 44 59
e 44 60
e 44 64
e 44 68
e 44 69
e 44 70
e 44 71
e 44 75
e 45 49
e 45 53
e 45 56
e 45 59
e 45 60
e 45 61
e 45 62
e 45 67
e 45 72
e 46 48
e 46 49
e 46 51
e 46 54
e 46 55
e 46 56
e 46 59
e 46 62
e 46 63
e 46 64
e 46 66
e 46 67
e 46 69
e 46 70
e 46 72
e 46 74
e 47 49
e 47 50
e 47 52
e 47 56
e 47 59
e 47 61
e 47 62
e 47 66
e 47 68
e 47 70
e 47 72
e 47 75
e 48 51
e 48 52
e 48 53
e 48 56
e 48 61
e 48 62
e 48 66
e 48 67
e 49 50
e 49 51
e 49 52
e 49 53
e 49 57
e 49 59
e 49 62
e 49 63
e 49 65
e 49 67
e 49 72
e 50 51
e 50 52
e 50 53
e 50 57
e 50 58
e 50 59
e 50 61
e 50 63
e 50 66
e 50 67
e 50 68
e 50 70
e 50 72
e 51 52
e 51 54
e 51 55
e 51 56
e 51 57
e 51 58
e 51 59
e 51 60
e 51 63
e 51 64
e 51 67
e 51 69
e 51 71
e 51 74
e 52 53
e 52 54
e 52 59
e 52 61
e 52 67
e 52 69
e 52 71
e 52 72
e 52 75
e 53 57
e 53 58
e 53 60
e 53 62
e 53 64
e 53 67
e 53 69
e 53 70
e 53 71
e 54 58
e 54 59
e 54 64
e 54 65
e 54 66
e 54 68
e 54 71
e 54 72
e 54 75
e 55 60
e 55 61
e 55 62
e 55 64
e 55 65
e 55 69
e 55 72
e 55 73
e 56 57
e 56 58
e 56 61
e 56 63
e 56 65
e 56 67
e 56 68
e 56 70
e 56 71
e 57 58
e 57 60
e 57 64
e 57 68
e 57 72
e 57 75
e 58 63
e 58 73
e 58 74
e 59 60
e 59 61
e 59 62
e 59 69
e 59 71
e 59 75
e 60 63
e 60 65
e 60 66
e 60 72
e 60 73
e 60 75
e 61 64
e 61 65
e 61 67
e 61 68
e 61 72
e 61 74
e 62 64
e 62 66
e 62 67
e 62 71
e 62 74
e 62 75
e 63 67
e 63 69
e 63 74
e 63 75
e 64 65
e 64 68
e 64 74
e 65 67
e 65 73
e 66 67
e 66 69
e 66 70
e 66 72
e 66 74
e 66 75
e 67 70
e 67 72
e 67 74
e 67 75
e 68 69
e 68 71
e 68 72
e 68 74
e 69 75
e 70 74
e 71 72
e 71 74
e 72 74
e 72 75
e 74 75
